# Cost: 429

# Tail Head Net
51 21 1
95 995 1
125 95 1
155 125 1
185 155 1
215 185 1
245 215 1
271 272 1
271 301 1
272 273 1
273 274 1
274 275 1
275 245 1
275 305 1
305 335 1
335 365 1
365 395 1
395 425 1
425 455 1
455 485 1
485 515 1
515 545 1
545 575 1
575 605 1
605 635 1
635 665 1
665 695 1
695 725 1
725 755 1
755 785 1
785 815 1
815 845 1
845 875 1
935 936 1
936 937 1
937 938 1
938 939 1
939 940 1
940 941 1
941 942 1
942 943 1
943 944 1
944 945 1
945 946 1
946 947 1
947 948 1
948 949 1
949 950 1
950 951 1
951 51 1
965 935 1
995 965 1
270 300 2
300 330 2
328 358 2
329 328 2
330 329 2
358 388 2
388 418 2
418 448 2
448 478 2
478 508 2
507 537 2
508 507 2
535 565 2
536 535 2
537 536 2
565 595 2
595 625 2
625 655 2
655 685 2
662 661 2
685 715 2
692 662 2
693 692 2
715 745 2
723 693 2
745 775 2
753 723 2
775 805 2
783 753 2
783 813 2
784 783 2
805 835 2
805 1705 2
813 843 2
835 865 2
843 873 2
865 895 2
1684 784 2
1685 1684 2
1686 1685 2
1687 1686 2
1688 1687 2
1689 1688 2
1690 1689 2
1691 1690 2
1692 1691 2
1693 1692 2
1694 1693 2
1695 1694 2
1696 1695 2
1697 1696 2
1698 1697 2
1699 1698 2
1700 1699 2
1701 1700 2
1702 1701 2
1703 1702 2
1704 1703 2
1705 1704 2
31 32 3
32 33 3
33 34 3
34 35 3
35 5 3
35 65 3
65 66 3
66 96 3
96 126 3
126 156 3
156 186 3
186 216 3
216 246 3
246 247 3
247 277 3
277 307 3
307 337 3
337 367 3
367 397 3
397 427 3
427 457 3
457 487 3
487 517 3
517 547 3
547 577 3
577 607 3
607 637 3
637 667 3
667 697 3
697 727 3
727 728 3
728 758 3
758 788 3
788 818 3
818 848 3
848 878 3
878 879 3
879 880 3
880 881 3
881 882 3
882 883 3
20 50 4
22 23 4
23 24 4
24 25 4
50 80 4
52 22 4
80 81 4
80 110 4
81 82 4
82 52 4
110 140 4
140 170 4
170 200 4
200 230 4
230 260 4
260 290 4
290 320 4
320 350 4
350 380 4
380 410 4
410 440 4
440 470 4
464 494 4
465 464 4
466 465 4
467 466 4
468 467 4
469 468 4
470 469 4
494 524 4
524 554 4
542 541 4
543 542 4
549 1449 4
550 549 4
551 550 4
552 551 4
553 552 4
554 553 4
554 584 4
584 614 4
614 644 4
644 674 4
674 704 4
704 734 4
734 764 4
764 794 4
794 824 4
824 854 4
854 884 4
1443 543 4
1444 1443 4
1445 1444 4
1446 1445 4
1447 1446 4
1448 1447 4
1449 1448 4
7 37 5
37 67 5
67 967 5
88 89 5
89 90 5
782 812 5
812 842 5
842 872 5
967 968 5
967 997 5
968 969 5
969 970 5
970 971 5
971 972 5
972 973 5
973 974 5
974 975 5
975 976 5
976 977 5
977 978 5
978 979 5
979 980 5
980 981 5
981 982 5
982 983 5
983 984 5
984 985 5
985 986 5
986 987 5
987 988 5
988 88 5
997 1027 5
1027 1057 5
1057 1087 5
1085 1115 5
1086 1085 5
1087 1086 5
1112 1142 5
1113 1112 5
1114 1113 5
1115 1114 5
1142 1172 5
1172 1202 5
1202 1232 5
1232 1262 5
1262 1292 5
1292 1322 5
1322 1352 5
1352 1382 5
1382 1412 5
1412 1442 5
1442 1472 5
1472 1502 5
1502 1532 5
1532 1562 5
1562 1592 5
1592 1622 5
1622 1652 5
1652 1682 5
1682 782 5
421 1321 6
451 421 6
481 451 6
903 3 6
933 903 6
963 933 6
993 963 6
1021 1022 6
1022 1023 6
1023 993 6
1051 1021 6
1081 1051 6
1111 211 6
1111 1081 6
1141 1111 6
1171 1141 6
1201 1171 6
1231 1201 6
1261 1231 6
1291 1261 6
1321 1291 6
660 1560 7
690 660 7
902 2 7
1042 1942 7
1072 1042 7
1073 1072 7
1074 1073 7
1075 1074 7
1076 1075 7
1077 1076 7
1078 1077 7
1079 1078 7
1080 180 7
1080 1079 7
1110 1080 7
1140 1110 7
1170 1140 7
1200 1170 7
1230 1200 7
1260 1230 7
1290 1260 7
1320 1290 7
1350 1320 7
1380 1350 7
1410 1380 7
1440 1410 7
1470 1440 7
1500 1470 7
1530 1500 7
1560 1530 7
1802 902 7
1803 1802 7
1804 1803 7
1805 1804 7
1806 1805 7
1807 1806 7
1808 1807 7
1809 1808 7
1810 1809 7
1811 1810 7
1812 1811 7
1813 1812 7
1814 1813 7
1815 1814 7
1845 1815 7
1846 1845 7
1847 1846 7
1848 1847 7
1849 1848 7
1879 1849 7
1880 1879 7
1881 1880 7
1911 1881 7
1912 1911 7
1942 1912 7
841 1741 8
896 897 8
897 898 8
898 899 8
899 900 8
1741 1742 8
1742 1743 8
1743 1744 8
1744 1745 8
1745 1746 8
1746 1747 8
1747 1748 8
1748 1749 8
1749 1750 8
1750 1751 8
1751 1752 8
1752 1753 8
1753 1754 8
1754 1755 8
1755 1756 8
1756 1757 8
1757 1758 8
1758 1759 8
1759 1760 8
1760 1761 8
1761 1762 8
1762 1763 8
1763 1764 8
1764 1765 8
1765 1795 8
1795 1796 8
1796 896 8
12 11 9
13 12 9
14 13 9
15 14 9
16 15 9
26 926 9
27 26 9
27 57 9
57 87 9
87 117 9
117 118 9
118 148 9
148 149 9
149 150 9
916 16 9
917 916 9
918 917 9
919 918 9
920 919 9
921 920 9
922 921 9
923 922 9
924 923 9
925 924 9
926 925 9
721 691 10
751 721 10
781 751 10
811 781 10
811 1711 10
826 827 10
827 857 10
857 887 10
887 888 10
888 889 10
1711 1712 10
1712 1713 10
1713 1714 10
1714 1715 10
1715 1716 10
1716 1717 10
1717 1718 10
1718 1719 10
1719 1720 10
1720 1721 10
1721 1722 10
1722 1723 10
1723 1724 10
1724 1725 10
1725 1726 10
1726 826 10
891 890 11
